100
30
10
5
8
7
6
2
3
32
25
31
31
3
6
17
22
2
16
31
30
5
31
22
9
17
8
4
13
14
4
3
28
32
20
31
24
7
1
9
21
4
3
22
1
7
9
20
2
2
32
14
21
15
12
18
1
31
4
29
32
21
18
8
7
8
25
5
25
19
16
32
2
22
14
10
6
32
5
3
22
5
3
32
28
2
31
12
25
18
9
2
31
5
19
19
3
31
8
14
6
2